
Gurobi 7.0.2 (linux64, Python) logging started Thu Jun  8 14:28:06 2017

Changed value of parameter Presolve to 0
   Prev: -1  Min: -1  Max: 2  Default: -1
Changed value of parameter Method to 0
   Prev: -1  Min: -1  Max: 4  Default: -1
Changed value of parameter MIPGap to 1e-07
   Prev: 0.0001  Min: 0.0  Max: 1e+100  Default: 0.0001

Gurobi 7.0.2 (linux64, Python) logging started Thu Jun  8 14:28:23 2017

Changed value of parameter Presolve to 0
   Prev: -1  Min: -1  Max: 2  Default: -1
Changed value of parameter Method to 0
   Prev: -1  Min: -1  Max: 4  Default: -1
Changed value of parameter MIPGap to 1e-07
   Prev: 0.0001  Min: 0.0  Max: 1e+100  Default: 0.0001

Gurobi 7.0.2 (linux64, Python) logging started Thu Jun  8 14:28:24 2017

Changed value of parameter Presolve to 0
   Prev: -1  Min: -1  Max: 2  Default: -1
Changed value of parameter Method to 0
   Prev: -1  Min: -1  Max: 4  Default: -1
Changed value of parameter MIPGap to 1e-07
   Prev: 0.0001  Min: 0.0  Max: 1e+100  Default: 0.0001

Gurobi 7.0.2 (linux64, Python) logging started Thu Jun  8 14:29:24 2017

Changed value of parameter Presolve to 0
   Prev: -1  Min: -1  Max: 2  Default: -1
Changed value of parameter Method to 0
   Prev: -1  Min: -1  Max: 4  Default: -1
Changed value of parameter MIPGap to 1e-07
   Prev: 0.0001  Min: 0.0  Max: 1e+100  Default: 0.0001

Gurobi 7.0.2 (linux64, Python) logging started Thu Jun  8 14:29:32 2017

Changed value of parameter Presolve to 0
   Prev: -1  Min: -1  Max: 2  Default: -1
Changed value of parameter Method to 0
   Prev: -1  Min: -1  Max: 4  Default: -1
Changed value of parameter MIPGap to 1e-07
   Prev: 0.0001  Min: 0.0  Max: 1e+100  Default: 0.0001

Gurobi 7.0.2 (linux64, Python) logging started Thu Jun  8 14:30:00 2017

Changed value of parameter Presolve to 0
   Prev: -1  Min: -1  Max: 2  Default: -1
Changed value of parameter Method to 0
   Prev: -1  Min: -1  Max: 4  Default: -1
Changed value of parameter MIPGap to 1e-07
   Prev: 0.0001  Min: 0.0  Max: 1e+100  Default: 0.0001

Gurobi 7.0.2 (linux64, Python) logging started Thu Jun  8 14:30:06 2017

Changed value of parameter Presolve to 0
   Prev: -1  Min: -1  Max: 2  Default: -1
Changed value of parameter Method to 0
   Prev: -1  Min: -1  Max: 4  Default: -1
Changed value of parameter MIPGap to 1e-07
   Prev: 0.0001  Min: 0.0  Max: 1e+100  Default: 0.0001

Gurobi 7.0.2 (linux64, Python) logging started Thu Jun  8 14:30:31 2017

Changed value of parameter Presolve to 0
   Prev: -1  Min: -1  Max: 2  Default: -1
Changed value of parameter Method to 0
   Prev: -1  Min: -1  Max: 4  Default: -1
Changed value of parameter MIPGap to 1e-07
   Prev: 0.0001  Min: 0.0  Max: 1e+100  Default: 0.0001

Gurobi 7.0.2 (linux64, Python) logging started Thu Jun  8 14:31:11 2017

Changed value of parameter Presolve to 0
   Prev: -1  Min: -1  Max: 2  Default: -1
Changed value of parameter Method to 0
   Prev: -1  Min: -1  Max: 4  Default: -1
Changed value of parameter MIPGap to 1e-07
   Prev: 0.0001  Min: 0.0  Max: 1e+100  Default: 0.0001
Optimize a model with 2 rows, 3 columns and 6 nonzeros
Coefficient statistics:
  Matrix range     [1e+00, 4e+00]
  Objective range  [6e+01, 2e+02]
  Bounds range     [0e+00, 0e+00]
  RHS range        [5e+00, 7e+00]
Iteration    Objective       Primal Inf.    Dual Inf.      Time
       0   -0.0000000e+00   0.000000e+00   6.090000e+02      0s
       3    3.5700000e+02   0.000000e+00   0.000000e+00      0s

Solved in 3 iterations and 0.00 seconds
Optimal objective  3.570000000e+02
